Minimize
	value: tt

Subject to
tt + 1024 s_1_1 > 0.0
tt - t_1_1 - 1024.000000 s_1_1 > -1021.062500
tt + 1024 s_2_1 > 0.0
tt - t_2_1 - 1024.000000 s_2_1 > -1021.536200
tt + 1024 s_1_2 > 0.0
tt - t_1_2 - 1024.000000 s_1_2 > -1018.780300
tt + 1024 s_2_2 > 0.0
tt - t_2_2 - 1024.000000 s_2_2 > -1020.070200
tt + 1024 s_1_3 > 0.0
tt - t_1_3 - 1024.000000 s_1_3 > -1022.020000
tt + 1024 s_2_3 > 0.0
tt - t_2_3 - 1024.000000 s_2_3 > -1022.781900
tt + 1024 s_1_4 > 0.0
tt - t_1_4 - 1024.000000 s_1_4 > -1021.220500
tt + 1024 s_2_4 > 0.0
tt - t_2_4 - 1024.000000 s_2_4 > -1021.576300
tt + 1024 s_1_5 > 0.0
tt - t_1_5 - 1050.545371 s_1_5 + 26.545371 s_1_3 > -1023.726000
tt + 1024 s_2_5 > 0.0
tt - t_2_5 - 1055.797434 s_2_5 + 31.797434 s_2_3 > -1022.766200
s_1_1 + s_2_1  = 1
s_1_2 + s_2_2  = 1
s_1_3 + s_2_3  = 1
s_1_4 + s_2_4  = 1
s_1_5 + s_2_5  = 1
s_1_1 + s_1_2 + 1024 r_1_1_2 >= 2
- s_1_1 - s_1_2 - 1024 r_1_1_2 >= -1025
t_1_1 - t_1_2 - 1024.000000 u_1_1_2 + 2048.000000 r_1_1_2 > -1018.780300
s_2_1 + s_2_2 + 1024 r_2_1_2 >= 2
- s_2_1 - s_2_2 - 1024 r_2_1_2 >= -1025
t_2_1 - t_2_2 - 1024.000000 u_2_1_2 + 2048.000000 r_2_1_2 > -1020.070200
s_1_1 + s_1_3 + 1024 r_1_1_3 >= 2
- s_1_1 - s_1_3 - 1024 r_1_1_3 >= -1025
t_1_1 - t_1_3 - 1024.000000 u_1_1_3 + 2048.000000 r_1_1_3 > -1022.020000
s_2_1 + s_2_3 + 1024 r_2_1_3 >= 2
- s_2_1 - s_2_3 - 1024 r_2_1_3 >= -1025
t_2_1 - t_2_3 - 1024.000000 u_2_1_3 + 2048.000000 r_2_1_3 > -1022.781900
s_1_1 + s_1_4 + 1024 r_1_1_4 >= 2
- s_1_1 - s_1_4 - 1024 r_1_1_4 >= -1025
t_1_1 - t_1_4 - 1024.000000 u_1_1_4 + 2048.000000 r_1_1_4 > -1021.220500
s_2_1 + s_2_4 + 1024 r_2_1_4 >= 2
- s_2_1 - s_2_4 - 1024 r_2_1_4 >= -1025
t_2_1 - t_2_4 - 1024.000000 u_2_1_4 + 2048.000000 r_2_1_4 > -1021.576300
t_1_5 - t_1_1 - 1024.000000 s_1_1 > -1021.062500
t_1_5 - t_2_1 - 1024.000000 s_2_1 > -1021.536200
t_2_5 - t_1_1 - 1024.000000 s_1_1 > -1021.062500
t_2_5 - t_2_1 - 1024.000000 s_2_1 > -1021.536200
s_1_2 + s_1_1 + 1024 r_1_1_2 >= 2
- s_1_2 - s_1_1 - 1024 r_1_1_2 >= -1025
t_1_2 - t_1_1 + 1024.000000 u_1_1_2 + 2048.000000 r_1_1_2 > 2.937500
s_2_2 + s_2_1 + 1024 r_2_1_2 >= 2
- s_2_2 - s_2_1 - 1024 r_2_1_2 >= -1025
t_2_2 - t_2_1 + 1024.000000 u_2_1_2 + 2048.000000 r_2_1_2 > 2.463800
s_1_2 + s_1_3 + 1024 r_1_2_3 >= 2
- s_1_2 - s_1_3 - 1024 r_1_2_3 >= -1025
t_1_2 - t_1_3 - 1024.000000 u_1_2_3 + 2048.000000 r_1_2_3 > -1022.020000
s_2_2 + s_2_3 + 1024 r_2_2_3 >= 2
- s_2_2 - s_2_3 - 1024 r_2_2_3 >= -1025
t_2_2 - t_2_3 - 1024.000000 u_2_2_3 + 2048.000000 r_2_2_3 > -1022.781900
s_1_2 + s_1_4 + 1024 r_1_2_4 >= 2
- s_1_2 - s_1_4 - 1024 r_1_2_4 >= -1025
t_1_2 - t_1_4 - 1024.000000 u_1_2_4 + 2048.000000 r_1_2_4 > -1021.220500
s_2_2 + s_2_4 + 1024 r_2_2_4 >= 2
- s_2_2 - s_2_4 - 1024 r_2_2_4 >= -1025
t_2_2 - t_2_4 - 1024.000000 u_2_2_4 + 2048.000000 r_2_2_4 > -1021.576300
t_1_5 - t_1_2 - 1024.000000 s_1_2 > -1018.780300
t_1_5 - t_2_2 - 1024.000000 s_2_2 > -1020.070200
t_2_5 - t_1_2 - 1024.000000 s_1_2 > -1018.780300
t_2_5 - t_2_2 - 1024.000000 s_2_2 > -1020.070200
s_1_3 + s_1_1 + 1024 r_1_1_3 >= 2
- s_1_3 - s_1_1 - 1024 r_1_1_3 >= -1025
t_1_3 - t_1_1 + 1024.000000 u_1_1_3 + 2048.000000 r_1_1_3 > 2.937500
s_2_3 + s_2_1 + 1024 r_2_1_3 >= 2
- s_2_3 - s_2_1 - 1024 r_2_1_3 >= -1025
t_2_3 - t_2_1 + 1024.000000 u_2_1_3 + 2048.000000 r_2_1_3 > 2.463800
s_1_3 + s_1_2 + 1024 r_1_2_3 >= 2
- s_1_3 - s_1_2 - 1024 r_1_2_3 >= -1025
t_1_3 - t_1_2 + 1024.000000 u_1_2_3 + 2048.000000 r_1_2_3 > 5.219700
s_2_3 + s_2_2 + 1024 r_2_2_3 >= 2
- s_2_3 - s_2_2 - 1024 r_2_2_3 >= -1025
t_2_3 - t_2_2 + 1024.000000 u_2_2_3 + 2048.000000 r_2_2_3 > 3.929800
s_1_3 + s_1_4 + 1024 r_1_3_4 >= 2
- s_1_3 - s_1_4 - 1024 r_1_3_4 >= -1025
t_1_3 - t_1_4 - 1024.000000 u_1_3_4 + 2048.000000 r_1_3_4 > -1021.220500
s_2_3 + s_2_4 + 1024 r_2_3_4 >= 2
- s_2_3 - s_2_4 - 1024 r_2_3_4 >= -1025
t_2_3 - t_2_4 - 1024.000000 u_2_3_4 + 2048.000000 r_2_3_4 > -1021.576300
t_1_5 - t_1_3 - 1024.000000 s_1_3 > -1022.020000
t_1_5 - t_2_3 - 1024.000000 s_2_3 > -1022.781900
t_2_5 - t_1_3 - 1024.000000 s_1_3 > -1022.020000
t_2_5 - t_2_3 - 1024.000000 s_2_3 > -1022.781900
s_1_4 + s_1_1 + 1024 r_1_1_4 >= 2
- s_1_4 - s_1_1 - 1024 r_1_1_4 >= -1025
t_1_4 - t_1_1 + 1024.000000 u_1_1_4 + 2048.000000 r_1_1_4 > 2.937500
s_2_4 + s_2_1 + 1024 r_2_1_4 >= 2
- s_2_4 - s_2_1 - 1024 r_2_1_4 >= -1025
t_2_4 - t_2_1 + 1024.000000 u_2_1_4 + 2048.000000 r_2_1_4 > 2.463800
s_1_4 + s_1_2 + 1024 r_1_2_4 >= 2
- s_1_4 - s_1_2 - 1024 r_1_2_4 >= -1025
t_1_4 - t_1_2 + 1024.000000 u_1_2_4 + 2048.000000 r_1_2_4 > 5.219700
s_2_4 + s_2_2 + 1024 r_2_2_4 >= 2
- s_2_4 - s_2_2 - 1024 r_2_2_4 >= -1025
t_2_4 - t_2_2 + 1024.000000 u_2_2_4 + 2048.000000 r_2_2_4 > 3.929800
s_1_4 + s_1_3 + 1024 r_1_3_4 >= 2
- s_1_4 - s_1_3 - 1024 r_1_3_4 >= -1025
t_1_4 - t_1_3 + 1024.000000 u_1_3_4 + 2048.000000 r_1_3_4 > 1.980000
s_2_4 + s_2_3 + 1024 r_2_3_4 >= 2
- s_2_4 - s_2_3 - 1024 r_2_3_4 >= -1025
t_2_4 - t_2_3 + 1024.000000 u_2_3_4 + 2048.000000 r_2_3_4 > 1.218100
t_1_5 - t_1_4 - 1024.000000 s_1_4 > -1021.220500
t_1_5 - t_2_4 - 1024.000000 s_2_4 > -1021.576300
t_2_5 - t_1_4 - 1024.000000 s_1_4 > -1021.220500
t_2_5 - t_2_4 - 1024.000000 s_2_4 > -1021.576300
Binary
s_1_1
s_2_1
s_1_2
s_2_2
s_1_3
s_2_3
s_1_4
s_2_4
s_1_5
s_2_5
u_1_1_2
r_1_1_2
u_2_1_2
r_2_1_2
u_1_1_3
r_1_1_3
u_2_1_3
r_2_1_3
u_1_1_4
r_1_1_4
u_2_1_4
r_2_1_4
u_1_2_3
r_1_2_3
u_2_2_3
r_2_2_3
u_1_2_4
r_1_2_4
u_2_2_4
r_2_2_4
u_1_3_4
r_1_3_4
u_2_3_4
r_2_3_4

End
